NAME          COPTPROB
OBJSENSE
  MIN
ROWS
 N  __OBJ___
 L  C12     
 L  C86     
 L  C110    
COLUMNS
    MARKER    'MARKER'                 'INTORG'
    x55       __OBJ___  169
    x55       C12       -1
    x55       C110      -1
    x135      __OBJ___  113
    x135      C110      -1
    x145      __OBJ___  345
    x145      C86       -1
    x145      C110      -1
    x194      __OBJ___  111
    x194      C12       -1
    x217      __OBJ___  440
    x217      C12       -1
    x217      C86       -1
    MARKER    'MARKER'                 'INTEND'
RHS
    RHS       __OBJ___  -31289
    RHS       C12       -1
    RHS       C86       -1
    RHS       C110      -1
BOUNDS
 UP BOUND     x55       1
 UP BOUND     x135      1
 UP BOUND     x145      1
 UP BOUND     x194      1
 UP BOUND     x217      1
ENDATA
